
Gurobi 8.1.1 (linux64, Python) logging started Wed May  1 17:59:26 2019


Gurobi 8.1.1 (linux64, Python) logging started Thu May  2 10:17:07 2019

Academic license - for non-commercial use only
Optimize a model with 2 rows, 3 columns and 5 nonzeros
Variable types: 0 continuous, 3 integer (3 binary)
Coefficient statistics:
  Matrix range     [1e+00, 3e+00]
  Objective range  [1e+00, 2e+00]
  Bounds range     [1e+00, 1e+00]
  RHS range        [1e+00, 4e+00]
Found heuristic solution: objective 2.0000000
Presolve removed 2 rows and 3 columns
Presolve time: 0.00s
Presolve: All rows and columns removed

Explored 0 nodes (0 simplex iterations) in 0.00 seconds
Thread count was 1 (of 4 available processors)

Solution count 2: 3 2 

Optimal solution found (tolerance 1.00e-04)
Best objective 3.000000000000e+00, best bound 3.000000000000e+00, gap 0.0000%

Gurobi 8.1.1 (linux64, Python) logging started Thu May  2 10:30:23 2019

Academic license - for non-commercial use only
Optimize a model with 2 rows, 3 columns and 5 nonzeros
Variable types: 0 continuous, 3 integer (3 binary)
Coefficient statistics:
  Matrix range     [1e+00, 3e+00]
  Objective range  [1e+00, 2e+00]
  Bounds range     [1e+00, 1e+00]
  RHS range        [1e+00, 4e+00]
Found heuristic solution: objective 2.0000000
Presolve removed 2 rows and 3 columns
Presolve time: 0.00s
Presolve: All rows and columns removed

Explored 0 nodes (0 simplex iterations) in 0.00 seconds
Thread count was 1 (of 4 available processors)

Solution count 2: 3 2 

Optimal solution found (tolerance 1.00e-04)
Best objective 3.000000000000e+00, best bound 3.000000000000e+00, gap 0.0000%

Gurobi 8.1.1 (linux64, Python) logging started Thu May  2 10:46:53 2019

Academic license - for non-commercial use only

Gurobi 8.1.1 (linux64, Python) logging started Thu May  2 11:03:53 2019

Academic license - for non-commercial use only
Optimize a model with 2 rows, 3 columns and 5 nonzeros
Variable types: 0 continuous, 3 integer (3 binary)
Coefficient statistics:
  Matrix range     [1e+00, 3e+00]
  Objective range  [1e+00, 2e+00]
  Bounds range     [1e+00, 1e+00]
  RHS range        [1e+00, 4e+00]
Found heuristic solution: objective 2.0000000
Presolve removed 2 rows and 3 columns
Presolve time: 0.00s
Presolve: All rows and columns removed

Explored 0 nodes (0 simplex iterations) in 0.00 seconds
Thread count was 1 (of 4 available processors)

Solution count 2: 3 2 

Optimal solution found (tolerance 1.00e-04)
Best objective 3.000000000000e+00, best bound 3.000000000000e+00, gap 0.0000%

Gurobi 8.1.1 (linux64, Python) logging started Thu May  2 11:09:18 2019

Academic license - for non-commercial use only

Gurobi 8.1.1 (linux64, Python) logging started Thu May  2 11:10:40 2019

Academic license - for non-commercial use only

Gurobi 8.1.1 (linux64, Python) logging started Thu May  2 11:11:45 2019

Academic license - for non-commercial use only

Gurobi 8.1.1 (linux64, Python) logging started Thu May  2 11:23:02 2019

Academic license - for non-commercial use only
Optimize a model with 2 rows, 3 columns and 5 nonzeros
Variable types: 0 continuous, 3 integer (3 binary)
Coefficient statistics:
  Matrix range     [1e+00, 3e+00]
  Objective range  [1e+00, 2e+00]
  Bounds range     [1e+00, 1e+00]
  RHS range        [1e+00, 4e+00]
Found heuristic solution: objective 2.0000000
Presolve removed 2 rows and 3 columns
Presolve time: 0.00s
Presolve: All rows and columns removed

Explored 0 nodes (0 simplex iterations) in 0.00 seconds
Thread count was 1 (of 4 available processors)

Solution count 2: 3 2 

Optimal solution found (tolerance 1.00e-04)
Best objective 3.000000000000e+00, best bound 3.000000000000e+00, gap 0.0000%

Gurobi 8.1.1 (linux64, Python) logging started Thu May  2 11:25:41 2019

Academic license - for non-commercial use only

Gurobi 8.1.1 (linux64, Python) logging started Thu May  2 11:31:03 2019

Academic license - for non-commercial use only

Gurobi 8.1.1 (linux64, Python) logging started Thu May  2 11:32:57 2019

Academic license - for non-commercial use only
Optimize a model with 2 rows, 2 columns and 0 nonzeros
Variable types: 0 continuous, 2 integer (2 binary)
Coefficient statistics:
  Matrix range     [0e+00, 0e+00]
  Objective range  [0e+00, 0e+00]
  Bounds range     [1e+00, 1e+00]
  RHS range        [1e+02, 1e+02]
Found heuristic solution: objective -0.0000000

Explored 0 nodes (0 simplex iterations) in 0.00 seconds
Thread count was 1 (of 4 available processors)

Solution count 1: -0 

Optimal solution found (tolerance 1.00e-04)
Best objective -0.000000000000e+00, best bound -0.000000000000e+00, gap 0.0000%

Gurobi 8.1.1 (linux64, Python) logging started Thu May  2 11:35:47 2019

Academic license - for non-commercial use only

Gurobi 8.1.1 (linux64, Python) logging started Thu May  2 11:39:20 2019

Academic license - for non-commercial use only

Gurobi 8.1.1 (linux64, Python) logging started Thu May  2 11:46:57 2019

Academic license - for non-commercial use only
Optimize a model with 2 rows, 2 columns and 0 nonzeros
Variable types: 0 continuous, 2 integer (0 binary)
Coefficient statistics:
  Matrix range     [0e+00, 0e+00]
  Objective range  [0e+00, 0e+00]
  Bounds range     [0e+00, 0e+00]
  RHS range        [1e+02, 2e+02]
Found heuristic solution: objective -0.0000000

Explored 0 nodes (0 simplex iterations) in 0.00 seconds
Thread count was 1 (of 4 available processors)

Solution count 1: -0 

Optimal solution found (tolerance 1.00e-04)
Best objective -0.000000000000e+00, best bound -0.000000000000e+00, gap 0.0000%

Gurobi 8.1.1 (linux64, Python) logging started Thu May  2 11:47:56 2019

Academic license - for non-commercial use only
Optimize a model with 2 rows, 2 columns and 0 nonzeros
Variable types: 0 continuous, 2 integer (0 binary)
Coefficient statistics:
  Matrix range     [0e+00, 0e+00]
  Objective range  [0e+00, 0e+00]
  Bounds range     [0e+00, 0e+00]
  RHS range        [1e+02, 2e+02]
Found heuristic solution: objective -0.0000000

Explored 0 nodes (0 simplex iterations) in 0.00 seconds
Thread count was 1 (of 4 available processors)

Solution count 1: -0 

Optimal solution found (tolerance 1.00e-04)
Best objective -0.000000000000e+00, best bound -0.000000000000e+00, gap 0.0000%

Gurobi 8.1.1 (linux64, Python) logging started Thu May  2 11:49:06 2019

Academic license - for non-commercial use only
Optimize a model with 2 rows, 2 columns and 0 nonzeros
Variable types: 0 continuous, 2 integer (0 binary)
Coefficient statistics:
  Matrix range     [0e+00, 0e+00]
  Objective range  [0e+00, 0e+00]
  Bounds range     [0e+00, 0e+00]
  RHS range        [1e+02, 2e+02]
Found heuristic solution: objective -0.0000000

Explored 0 nodes (0 simplex iterations) in 0.00 seconds
Thread count was 1 (of 4 available processors)

Solution count 1: -0 

Optimal solution found (tolerance 1.00e-04)
Best objective -0.000000000000e+00, best bound -0.000000000000e+00, gap 0.0000%

Gurobi 8.1.1 (linux64, Python) logging started Thu May  2 11:51:33 2019

Academic license - for non-commercial use only
Optimize a model with 3 rows, 2 columns and 0 nonzeros
Variable types: 0 continuous, 2 integer (0 binary)
Coefficient statistics:
  Matrix range     [0e+00, 0e+00]
  Objective range  [0e+00, 0e+00]
  Bounds range     [0e+00, 0e+00]
  RHS range        [5e+02, 2e+03]
Found heuristic solution: objective -0.0000000

Explored 0 nodes (0 simplex iterations) in 0.00 seconds
Thread count was 1 (of 4 available processors)

Solution count 1: -0 

Optimal solution found (tolerance 1.00e-04)
Best objective -0.000000000000e+00, best bound -0.000000000000e+00, gap 0.0000%

Gurobi 8.1.1 (linux64, Python) logging started Thu May  2 16:22:52 2019

Academic license - for non-commercial use only
Optimize a model with 2 rows, 3 columns and 5 nonzeros
Variable types: 0 continuous, 3 integer (0 binary)
Coefficient statistics:
  Matrix range     [1e+00, 3e+00]
  Objective range  [1e+00, 2e+00]
  Bounds range     [0e+00, 0e+00]
  RHS range        [1e+00, 4e+00]
Presolve removed 2 rows and 3 columns
Presolve time: 0.00s
Presolve: All rows and columns removed

Explored 0 nodes (0 simplex iterations) in 0.00 seconds
Thread count was 1 (of 4 available processors)

Solution count 1: 4 

Optimal solution found (tolerance 1.00e-04)
Best objective 4.000000000000e+00, best bound 4.000000000000e+00, gap 0.0000%

Gurobi 8.1.1 (linux64, Python) logging started Thu May  2 16:28:59 2019

Academic license - for non-commercial use only
Optimize a model with 1 rows, 1 columns and 0 nonzeros
Variable types: 0 continuous, 1 integer (0 binary)
Coefficient statistics:
  Matrix range     [0e+00, 0e+00]
  Objective range  [0e+00, 0e+00]
  Bounds range     [0e+00, 0e+00]
  RHS range        [1e+02, 1e+02]
Found heuristic solution: objective -0.0000000

Explored 0 nodes (0 simplex iterations) in 0.00 seconds
Thread count was 1 (of 4 available processors)

Solution count 1: -0 

Optimal solution found (tolerance 1.00e-04)
Best objective -0.000000000000e+00, best bound -0.000000000000e+00, gap 0.0000%

Gurobi 8.1.1 (linux64, Python) logging started Thu May  2 16:29:31 2019

Academic license - for non-commercial use only
Optimize a model with 2 rows, 3 columns and 5 nonzeros
Variable types: 0 continuous, 3 integer (3 binary)
Coefficient statistics:
  Matrix range     [1e+00, 3e+00]
  Objective range  [1e+00, 2e+00]
  Bounds range     [1e+00, 1e+00]
  RHS range        [1e+00, 4e+00]
Found heuristic solution: objective 2.0000000
Presolve removed 2 rows and 3 columns
Presolve time: 0.00s
Presolve: All rows and columns removed

Explored 0 nodes (0 simplex iterations) in 0.00 seconds
Thread count was 1 (of 4 available processors)

Solution count 2: 3 2 

Optimal solution found (tolerance 1.00e-04)
Best objective 3.000000000000e+00, best bound 3.000000000000e+00, gap 0.0000%

Gurobi 8.1.1 (linux64, Python) logging started Thu May  2 16:43:37 2019

Academic license - for non-commercial use only
Optimize a model with 2 rows, 2 columns and 2 nonzeros
Variable types: 0 continuous, 2 integer (0 binary)
Coefficient statistics:
  Matrix range     [1e+00, 1e+00]
  Objective range  [2e+00, 3e+00]
  Bounds range     [0e+00, 0e+00]
  RHS range        [1e+02, 2e+02]
Found heuristic solution: objective 800.0000000
Presolve removed 2 rows and 2 columns
Presolve time: 0.00s
Presolve: All rows and columns removed

Explored 0 nodes (0 simplex iterations) in 0.00 seconds
Thread count was 1 (of 4 available processors)

Solution count 1: 800 

Optimal solution found (tolerance 1.00e-04)
Best objective 8.000000000000e+02, best bound 8.000000000000e+02, gap 0.0000%

Gurobi 8.1.1 (linux64, Python) logging started Thu May  2 17:19:54 2019

Academic license - for non-commercial use only
Optimize a model with 2 rows, 2 columns and 2 nonzeros
Variable types: 0 continuous, 2 integer (0 binary)
Coefficient statistics:
  Matrix range     [1e+00, 1e+00]
  Objective range  [2e+02, 2e+02]
  Bounds range     [0e+00, 0e+00]
  RHS range        [1e+02, 2e+02]
Found heuristic solution: objective 40000.000000
Presolve removed 2 rows and 2 columns
Presolve time: 0.00s
Presolve: All rows and columns removed

Explored 0 nodes (0 simplex iterations) in 0.00 seconds
Thread count was 1 (of 4 available processors)

Solution count 1: 40000 

Optimal solution found (tolerance 1.00e-04)
Best objective 4.000000000000e+04, best bound 4.000000000000e+04, gap 0.0000%

Gurobi 8.1.1 (linux64, Python) logging started Thu May  2 17:21:08 2019

Academic license - for non-commercial use only
Optimize a model with 2 rows, 2 columns and 2 nonzeros
Variable types: 0 continuous, 2 integer (0 binary)
Coefficient statistics:
  Matrix range     [1e+00, 1e+00]
  Objective range  [3e+00, 3e+00]
  Bounds range     [0e+00, 0e+00]
  RHS range        [1e+02, 2e+02]
Found heuristic solution: objective 900.0000000
Presolve removed 2 rows and 2 columns
Presolve time: 0.00s
Presolve: All rows and columns removed

Explored 0 nodes (0 simplex iterations) in 0.00 seconds
Thread count was 1 (of 4 available processors)

Solution count 1: 900 

Optimal solution found (tolerance 1.00e-04)
Best objective 9.000000000000e+02, best bound 9.000000000000e+02, gap 0.0000%

Gurobi 8.1.1 (linux64, Python) logging started Thu May  2 17:46:08 2019

Academic license - for non-commercial use only
Optimize a model with 3 rows, 2 columns and 5 nonzeros
Variable types: 0 continuous, 2 integer (0 binary)
Coefficient statistics:
  Matrix range     [1e+00, 2e+00]
  Objective range  [1e+01, 1e+01]
  Bounds range     [0e+00, 0e+00]
  RHS range        [5e+02, 2e+03]
Found heuristic solution: objective 10000.000000
Presolve removed 3 rows and 2 columns
Presolve time: 0.00s
Presolve: All rows and columns removed

Explored 0 nodes (0 simplex iterations) in 0.00 seconds
Thread count was 1 (of 4 available processors)

Solution count 2: 12000 10000 

Optimal solution found (tolerance 1.00e-04)
Best objective 1.200000000000e+04, best bound 1.200000000000e+04, gap 0.0000%

Gurobi 8.1.1 (linux64, Python) logging started Thu May  2 17:48:18 2019

Academic license - for non-commercial use only
Optimize a model with 2 rows, 2 columns and 2 nonzeros
Variable types: 0 continuous, 2 integer (0 binary)
Coefficient statistics:
  Matrix range     [1e+00, 1e+00]
  Objective range  [2e+00, 2e+00]
  Bounds range     [0e+00, 0e+00]
  RHS range        [1e+02, 1e+02]
Found heuristic solution: objective 400.0000000
Presolve removed 2 rows and 2 columns
Presolve time: 0.00s
Presolve: All rows and columns removed

Explored 0 nodes (0 simplex iterations) in 0.00 seconds
Thread count was 1 (of 4 available processors)

Solution count 1: 400 

Optimal solution found (tolerance 1.00e-04)
Best objective 4.000000000000e+02, best bound 4.000000000000e+02, gap 0.0000%

Gurobi 8.1.1 (linux64, Python) logging started Thu May  2 17:49:41 2019

Academic license - for non-commercial use only
Optimize a model with 2 rows, 2 columns and 2 nonzeros
Variable types: 0 continuous, 2 integer (0 binary)
Coefficient statistics:
  Matrix range     [1e+00, 1e+00]
  Objective range  [3e+00, 3e+00]
  Bounds range     [0e+00, 0e+00]
  RHS range        [1e+02, 2e+02]
Found heuristic solution: objective 900.0000000
Presolve removed 2 rows and 2 columns
Presolve time: 0.00s
Presolve: All rows and columns removed

Explored 0 nodes (0 simplex iterations) in 0.00 seconds
Thread count was 1 (of 4 available processors)

Solution count 1: 900 

Optimal solution found (tolerance 1.00e-04)
Best objective 9.000000000000e+02, best bound 9.000000000000e+02, gap 0.0000%

Gurobi 8.1.1 (linux64, Python) logging started Tue May  7 05:32:45 2019

Academic license - for non-commercial use only
Optimize a model with 2 rows, 2 columns and 2 nonzeros
Variable types: 0 continuous, 2 integer (0 binary)
Coefficient statistics:
  Matrix range     [1e+00, 1e+00]
  Objective range  [4e+00, 4e+00]
  Bounds range     [0e+00, 0e+00]
  RHS range        [2e+02, 5e+02]
Found heuristic solution: objective 2800.0000000
Presolve removed 2 rows and 2 columns
Presolve time: 0.04s
Presolve: All rows and columns removed

Explored 0 nodes (0 simplex iterations) in 0.09 seconds
Thread count was 1 (of 4 available processors)

Solution count 1: 2800 

Optimal solution found (tolerance 1.00e-04)
Best objective 2.800000000000e+03, best bound 2.800000000000e+03, gap 0.0000%

Gurobi 8.1.1 (linux64, Python) logging started Tue May  7 05:37:21 2019

Academic license - for non-commercial use only
Optimize a model with 2 rows, 2 columns and 2 nonzeros
Variable types: 0 continuous, 2 integer (0 binary)
Coefficient statistics:
  Matrix range     [1e+00, 1e+00]
  Objective range  [5e+00, 6e+00]
  Bounds range     [0e+00, 0e+00]
  RHS range        [2e+02, 4e+02]
Found heuristic solution: objective 3750.0000000
Presolve removed 2 rows and 2 columns
Presolve time: 0.00s
Presolve: All rows and columns removed

Explored 0 nodes (0 simplex iterations) in 0.00 seconds
Thread count was 1 (of 4 available processors)

Solution count 1: 3750 

Optimal solution found (tolerance 1.00e-04)
Best objective 3.750000000000e+03, best bound 3.750000000000e+03, gap 0.0000%

Gurobi 8.1.1 (linux64, Python) logging started Tue May  7 05:53:01 2019

Academic license - for non-commercial use only
Optimize a model with 3 rows, 2 columns and 5 nonzeros
Coefficient statistics:
  Matrix range     [1e+00, 2e+00]
  Objective range  [1e+01, 2e+01]
  Bounds range     [0e+00, 0e+00]
  RHS range        [5e+02, 2e+03]
Presolve removed 1 rows and 0 columns
Presolve time: 0.00s
Presolved: 2 rows, 2 columns, 4 nonzeros

Iteration    Objective       Primal Inf.    Dual Inf.      Time
       0    1.5000000e+04   7.484987e+01   0.000000e+00      0s
       2    1.3500000e+04   0.000000e+00   0.000000e+00      0s

Solved in 2 iterations and 0.04 seconds
Optimal objective  1.350000000e+04

Gurobi 8.1.1 (linux64, Python) logging started Tue May  7 09:05:35 2019

Academic license - for non-commercial use only

Gurobi 8.1.1 (linux64, Python) logging started Tue May  7 09:06:53 2019

Academic license - for non-commercial use only
Optimize a model with 3 rows, 2 columns and 6 nonzeros
Coefficient statistics:
  Matrix range     [2e-01, 5e-01]
  Objective range  [3e+03, 5e+03]
  Bounds range     [0e+00, 0e+00]
  RHS range        [1e+01, 2e+01]
Presolve time: 0.00s
Presolved: 3 rows, 2 columns, 6 nonzeros

Iteration    Objective       Primal Inf.    Dual Inf.      Time
       0    8.0000000e+33   4.000000e+30   8.000000e+03      0s
       3    1.6000000e+05   0.000000e+00   0.000000e+00      0s

Solved in 3 iterations and 0.00 seconds
Optimal objective  1.600000000e+05

Gurobi 8.1.1 (linux64, Python) logging started Tue Jun 11 05:45:50 2019

Academic license - for non-commercial use only
Optimize a model with 3 rows, 2 columns and 5 nonzeros
Coefficient statistics:
  Matrix range     [1e+00, 2e+00]
  Objective range  [1e+01, 2e+01]
  Bounds range     [0e+00, 0e+00]
  RHS range        [5e+02, 2e+03]
Presolve removed 1 rows and 0 columns
Presolve time: 0.03s
Presolved: 2 rows, 2 columns, 4 nonzeros

Iteration    Objective       Primal Inf.    Dual Inf.      Time
       0    1.5000000e+04   7.484987e+01   0.000000e+00      0s
       2    1.3500000e+04   0.000000e+00   0.000000e+00      0s

Solved in 2 iterations and 0.08 seconds
Optimal objective  1.350000000e+04

Gurobi 8.1.1 (linux64, Python) logging started Tue Jun 11 06:35:02 2019

Academic license - for non-commercial use only
Optimize a model with 3 rows, 2 columns and 6 nonzeros
Coefficient statistics:
  Matrix range     [1e+00, 1e+01]
  Objective range  [4e+03, 5e+03]
  Bounds range     [0e+00, 0e+00]
  RHS range        [1e+04, 5e+04]
Presolve removed 1 rows and 0 columns
Presolve time: 0.00s
Presolved: 2 rows, 2 columns, 4 nonzeros

Iteration    Objective       Primal Inf.    Dual Inf.      Time
       0    2.8800000e+07   2.997499e+03   0.000000e+00      0s
       2    2.6640000e+07   0.000000e+00   0.000000e+00      0s

Solved in 2 iterations and 0.00 seconds
Optimal objective  2.664000000e+07

Gurobi 8.1.1 (linux64, Python) logging started Tue Jun 11 06:40:18 2019

Academic license - for non-commercial use only

Gurobi 8.1.1 (linux64, Python) logging started Wed Jun 12 23:33:54 2019

Academic license - for non-commercial use only

Gurobi 8.1.1 (linux64, Python) logging started Wed Jun 12 23:36:48 2019

Academic license - for non-commercial use only

Gurobi 8.1.1 (linux64, Python) logging started Wed Jun 12 23:39:52 2019

Academic license - for non-commercial use only

Gurobi 8.1.1 (linux64, Python) logging started Wed Jun 12 23:41:28 2019

Academic license - for non-commercial use only

Gurobi 8.1.1 (linux64, Python) logging started Wed Jun 12 23:43:55 2019

Academic license - for non-commercial use only

Gurobi 8.1.1 (linux64, Python) logging started Wed Jun 12 23:46:25 2019

Academic license - for non-commercial use only

Gurobi 8.1.1 (linux64, Python) logging started Wed Jun 12 23:48:12 2019

Academic license - for non-commercial use only

Gurobi 8.1.1 (linux64, Python) logging started Wed Jun 12 23:49:00 2019

Academic license - for non-commercial use only
Optimize a model with 2 rows, 2 columns and 4 nonzeros
Coefficient statistics:
  Matrix range     [2e+00, 1e+01]
  Objective range  [4e+03, 5e+03]
  Bounds range     [0e+00, 0e+00]
  RHS range        [2e+04, 5e+04]
Presolve time: 0.04s
Presolved: 2 rows, 2 columns, 4 nonzeros

Iteration    Objective       Primal Inf.    Dual Inf.      Time
       0    9.0000000e+33   3.562500e+30   9.000000e+03      0s
       2    2.6640000e+07   0.000000e+00   0.000000e+00      0s

Solved in 2 iterations and 0.07 seconds
Optimal objective  2.664000000e+07

Gurobi 8.1.1 (linux64, Python) logging started Wed Jun 12 23:51:24 2019

Academic license - for non-commercial use only
Optimize a model with 2 rows, 2 columns and 4 nonzeros
Coefficient statistics:
  Matrix range     [2e+00, 1e+01]
  Objective range  [4e+03, 5e+03]
  Bounds range     [0e+00, 0e+00]
  RHS range        [2e+04, 5e+04]
Presolve time: 0.00s
Presolved: 2 rows, 2 columns, 4 nonzeros

Iteration    Objective       Primal Inf.    Dual Inf.      Time
       0    9.0000000e+33   3.562500e+30   9.000000e+03      0s
       2    2.6640000e+07   0.000000e+00   0.000000e+00      0s

Solved in 2 iterations and 0.00 seconds
Optimal objective  2.664000000e+07

Gurobi 8.1.1 (linux64, Python) logging started Wed Jun 12 23:54:09 2019

Academic license - for non-commercial use only
Optimize a model with 2 rows, 2 columns and 4 nonzeros
Coefficient statistics:
  Matrix range     [2e+00, 1e+01]
  Objective range  [4e+03, 5e+03]
  Bounds range     [0e+00, 0e+00]
  RHS range        [2e+04, 5e+04]
Presolve time: 0.00s
Presolved: 2 rows, 2 columns, 4 nonzeros

Iteration    Objective       Primal Inf.    Dual Inf.      Time
       0    9.0000000e+33   3.562500e+30   9.000000e+03      0s
       2    2.6640000e+07   0.000000e+00   0.000000e+00      0s

Solved in 2 iterations and 0.00 seconds
Optimal objective  2.664000000e+07

Gurobi 8.1.1 (linux64, Python) logging started Wed Jun 12 23:55:49 2019

Academic license - for non-commercial use only
Optimize a model with 2 rows, 2 columns and 4 nonzeros
Coefficient statistics:
  Matrix range     [2e+00, 1e+01]
  Objective range  [4e+03, 5e+03]
  Bounds range     [3e+03, 3e+03]
  RHS range        [2e+04, 5e+04]
Presolve time: 0.00s

Solved in 0 iterations and 0.00 seconds
Infeasible or unbounded model

Gurobi 8.1.1 (linux64, Python) logging started Thu Jun 13 00:01:07 2019

Academic license - for non-commercial use only
Optimize a model with 2 rows, 2 columns and 4 nonzeros
Coefficient statistics:
  Matrix range     [2e+00, 1e+01]
  Objective range  [4e+03, 5e+03]
  Bounds range     [3e+03, 3e+03]
  RHS range        [2e+04, 5e+04]
Presolve time: 0.00s
Presolved: 2 rows, 2 columns, 4 nonzeros

Iteration    Objective       Primal Inf.    Dual Inf.      Time
       0    5.4000000e+33   9.062500e+29   5.400000e+03      0s
       1    2.6228571e+07   0.000000e+00   0.000000e+00      0s

Solved in 1 iterations and 0.00 seconds
Optimal objective  2.622857143e+07
